1708783
57, 10, 18, 14, 44, 53, 37, 39, 62, 51, 35, 68, 8, 15, 36, 28, 50, 59, 16, 63, 48, 2, 9, 58, 27, 17, 45, 65, 20, 4, 47, 13, 54, 19, 49, 60, 23, 6, 11, 66, 55, 26, 46, 43, 34, 7, 67, 38, 64, 41, 30, 25, 29, 5, 40, 56, 32, 42, 12, 1, 61, 24, 3, 21, 31, 22, 52, 33
